30 3000
1 498
2 491
3 485
4 468
5 462
6 454
7 453
8 453
9 451
10 439
11 398
12 391
13 383
14 381
15 378
16 370
17 368
18 368
19 363
20 361
21 361
22 357
23 356
24 354
25 353
26 352
27 346
28 343
29 341
30 335
